% Escenario 1:
% - 2 plantas (solo térmicas)
% - 2 clientes
% - 3 días
% Se exige G=90% de la demanda; costos y capacidades iguales.

np = 2;
nc = 2;
nd = 3;

nombrePlanta = ["Termica1", "Termica2"];
nombreCliente = ["ClienteA", "ClienteB"];

% Costos de producción por MW de cada planta
costo = [30.0, 30.0];

% Capacidad máxima de cada planta por día
cap = [400, 400];

% Pago por MW de cada cliente
pago = [70.0, 75.0];

% Demanda de cada cliente (filas) vs días (columnas)
dem = array2d(1..nc, 1..nd, [
  300, 300, 300,  % ClienteA, días 1..3
  100, 150, 200   % ClienteB, días 1..3
]);

% Porcentaje mínimo a cubrir
G = 0.90;

% Umbral para régimen alto (ej. 0.75)
umbralAlto = [0.75, 0.75];

% Máx. días consecutivos en alto
maxDiasAlto = [1, 1];
